COMMENT : drilling problem (Ludwig)
288 288 270 256 256 246 236 228 228 220 212 204 196 188 196 188 172 164 156 148 140 148 164 172 156 140 132 124 116 104 104 104 90 80 64 64 56 56 56 56 56 56 56 40 40 40 40 40 40 40 32 32 32 32 32 32 32 32 40 56 56 48 40 32 32 24 16 16 8 8 8 8 8 8 8 16 8 8 24 32 32 32 32 32 32 40 40 40 40 44 44 44 32 24 16 16 24 32 44 56 56 56 56 56 64 72 72 56 48 56 56 48 48 56 56 48 56 56 104 104 104 104 104 104 104 116 124 132 132 140 148 156 164 172 172 172 172 172 172 180 180 180 180 180 172 172 172 172 164 148 124 124 124 124 124 124 104 104 104 104 104 104 104 104 104 92 80 72 64 72 80 80 80 88 104 124 124 132 140 132 124 124 124 124 124 132 124 120 128 136 148 162 156 172 180 180 172 172 172 180 180 188 196 204 212 220 228 228 236 236 236 228 228 236 236 228 228 236 236 228 228 236 252 260 260 260 260 260 260 260 276 276 276 276 284 284 284 284 284 284 284 288 280 276 276 276 268 260 252 260 260 236 228 228 236 236 228 228 228 228 220 212 204 196 188 180 180 180 180 180 196 204 212 220 228 236 246 252 260 280
149 129 133 141 157 157 169 169 161 169 169 169 169 169 161 145 145 145 145 145 145 169 169 169 169 169 169 169 161 153 161 169 165 157 157 165 169 161 153 145 137 129 121 121 129 137 145 153 161 169 169 161 153 145 137 129 121 113 113 113 105 99 99 97 89 89 97 109 109 97 89 81 73 65 57 57 49 41 45 41 49 57 65 73 81 83 73 63 51 43 35 27 25 25 25 17 17 17 11 9 17 25 33 41 41 41 49 49 51 57 65 63 73 73 81 83 89 97 97 105 113 121 129 137 145 145 145 145 137 137 137 137 137 125 117 109 101 93 85 85 77 69 61 53 53 61 69 77 81 85 85 93 109 125 117 101 89 81 73 65 49 41 33 25 17 9 9 9 21 25 25 25 41 49 57 69 77 81 65 61 61 53 45 37 29 21 21 9 9 9 9 9 25 21 21 29 29 37 45 45 37 41 49 57 65 73 69 77 77 69 61 61 53 53 45 45 37 37 29 29 21 21 21 29 37 45 53 61 69 77 77 69 61 53 53 61 69 77 85 93 101 109 109 101 93 85 97 109 101 93 85 85 85 93 93 101 101 109 117 125 125 117 109 101 93 93 101 109 117 125 145 145 145 145 145 145 141 125 129 133
30761.8 30761.8 30761.8 30761.8 30761.8 30761.8 30761.8 30761.8 30761.8 30761.8 30761.8 30761.8 30761.8 30761.8 30466.6 30466.6 30466.6 30466.6 30466.6 30466.6 30466.6 30466.6 30466.6 30466.6 30466.6 30466.6 30466.6 30466.6 30466.6 30466.6 30466.6 30466.6 30466.6 30466.6 30466.6 30466.6 30466.6 30466.6 30466.6 30466.6 30466.6 30466.6 30466.6 30466.6 30466.6 30466.6 30466.6 30466.6 30466.6 30466.6 30466.6 30466.6 30466.6 30466.6 30466.6 30466.6 30466.6 30466.6 30466.6 30466.6 30466.6 30466.6 30466.6 30466.6 30466.6 30466.6 30466.6 30466.6 30466.6 30466.6 30466.6 30466.6 30466.6 30466.6 30466.6 30466.6 30466.6 30466.6 30466.6 30466.6 30466.6 30466.6 30466.6 30466.6 30466.6 30466.6 30466.6 30466.6 30466.6 30466.6 30466.6 30466.6 30466.6 30466.6 30466.6 30466.6 30466.6 30466.6 30466.6 30466.6 30466.6 30466.6 30466.6 30466.6 30466.6 30466.6 30466.6 30466.6 30466.6 30466.6 30466.6 30466.6 30466.6 30466.6 30466.6 30466.6 30466.6 30466.6 30466.6 30466.6 30466.6 30466.6 30436.8 30348.4 30348.4 30348.4 30348.4 30348.4 30348.4 30348.4 30348.4 30348.4 30348.4 30348.4 30348.4 30348.4 30348.4 30348.4 30348.4 30348.4 30348.4 30270.6 30270.6 30270.6 30270.6 30270.6 30270.6 30270.6 30270.6 30270.6 30270.6 30270.6 30270.6 30270.6 30270.6 30270.6 30270.6 30270.6 30270.6 30270.6 30270.6 30270.6 30270.6 30270.6 30270.6 30270.6 30270.6 30270.6 30026.8 30026.8 30026.8 30026.8 30026.8 30026.8 30026.8 30026.8 30026.8 30026.8 30026.8 30026.8 30026.8 30026.8 30026.8 30026.8 30026.8 30026.8 30026.8 30026.8 30026.8 30026.8 30026.8 30026.8 30026.8 30026.8 30026.8 30026.8 30026.8 30026.8 30026.8 30026.8 30026.8 30026.8 30026.8 30026.8 30026.8 30026.8 30026.8 30026.8 30026.8 30026.8 30026.8 30026.8 30026.8 30026.8 30026.8 30026.8 30026.8 30026.8 30026.8 30026.8 30026.8 30026.8 30026.8 30026.8 30026.8 30026.8 30026.8 30026.8 29912.4 29912.4 29912.4 29912.4 29912.4 29912.4 29888.6 29888.6 29888.6 29888.6 29888.6 29888.6 29888.6 29888.6 29888.6 29888.6 29888.6 29888.6 29766.6 29766.6 29766.6 29766.6 29766.6 29766.6 29766.6 29766.6 29766.6 29766.6 29766.6 29766.6 29766.6 29766.6 29766.6 29766.6 29766.6 29766.6 29766.6 29766.6 29766.6 29766.6 29766.6 29766.6 29766.6 29766.6 29766.6 29766.6 29766.6 29766.6 29766.6 29766.6 29766.6 29766.6 29766.6 29766.6 29766.6 29766.6 29766.6 29766.6 29766.6 29766.6 29766.6 29766.6 29766.6 29766.6 29766.6 29766.6 29766.6 29766.6 29766.6 29766.6 29766.6 29766.6 29766.6 29766.6 29766.6 29766.6 29766.6 29766.6 29766.6 29766.6 29766.6 29766.6 29766.6 29766.6 29766.6 29766.6 29766.6 29766.6 29766.6 29766.6 29766.6 29766.6 29766.6 29766.6 29766.6 29687.6 29687.6 29687.6 29687.6 29687.6 29687.6 29687.6 29687.6 29687.6 29687.6 29687.6 29687.6 29687.6 29687.6 29652.5 29601.3 29601.3 29601.3 29601.3 29601.3 29601.3 29601.3 29601.3 29601.3 29601.3 29596.1 29596.1 29596.1 29443.5 29443.5 29443.5 29443.5 29443.5 29443.5 29443.5 29443.5 29443.5 29443.5 29443.5 29443.5 29443.5 29443.5 29443.5 29443.5 29443.5 29443.5 29443.5 29443.5 29443.5 29443.5 29443.5 29443.5 29443.5 29443.5 29443.5 29443.5 29443.5 29443.5 29443.5 29443.5 29443.5 29443.5 29368.4 29368.4 29368.4 29368.4 29368.4 29368.4 29368.4 29368.4 29368.4 29368.4 29368.4 29368.4 29368.4 29368.4 29368.4 29368.4 29368.4 29368.4 29368.4 29368.4 29368.4 29368.4 29289.9 29289.9 29289.9 29289.9 29289.9 29289.9 29289.9 29289.9 29289.9 29289.9 29289.9 29289.9 29289.9 29289.9 29289.9 29289.9 29289.9 29289.9 29289.9 29289.9 29289.9 29289.9 29289.9 29289.9 29289.9 29289.9 29289.9 29289.9 29289.9 29289.9 29289.9 29289.9 29289.9 29289.9 29289.9 29289.9 29289.9 29289.9 29289.9 29289.9 29289.9 29286.4 29286.4 29286.4 28900.3 28900.3 28900.3 28900.3 28900.3 28900.3 28900.3 28900.3 28900.3 28900.3 28900.3 28900.3 28900.3 28900.3 28900.3 28900.3 28900.3 28900.3 28900.3 28900.3 28900.3 28900.3 28900.3 28900.3 28900.3 28900.3 28900.3 28900.3 28900.3 28900.3 28900.3 28900.3 28900.3 28900.3 28900.3 28900.3 28900.3 28900.3 28900.3 28900.3 28900.3 28900.3 28900.3 28900.3 28900.3 28900.3 28900.3 28900.3 28900.3 28900.3 28900.3 28900.3 28900.3 28900.3 28900.3 28900.3 28900.3 28900.3 28900.3 28900.3 28900.3 28900.3 28900.3 28900.3 28900.3 28900.3 28900.3 28900.3 28900.3 28900.3 28900.3 28900.3 28900.3 28900.3 28900.3 28900.3 28900.3 28900.3 28900.3 28900.3 28900.3 28900.3 28900.3 28900.3 28900.3 28900.3 28900.3 28900.3 28900.3 28900.3 28900.3 28900.3 28792.8 28792.8 28792.8 28792.8 28703.8 28703.8 28686.5 28686.5 28686.5 28686.5 28686.5 28686.5 28634.6 28634.6 28634.6 28634.6 28634.6 28634.6 28634.6 28634.6 28634.6 28634.6 28634.6 28634.6 28634.6 28634.6 28485.4 28485.4 28485.4 28485.4 28485.4 28485.4 28485.4 28485.4 28485.4 28485.4 28485.4 28485.4 28485.4 28485.4 28485.4 28485.4 28485.4 28485.4 28485.4 28485.4 28485.4 28485.4 28485.4 28485.4 28485.4 28485.4 28485.4 28485.4 28485.4 28485.4 28485.4 28485.4 28485.4 28485.4 28399.4 28399.4 28034.3 28034.3 28034.3 28034.3 28034.3 28034.3 28034.3 28034.3 28034.3 28034.3 28034.3 28034.3 28034.3 28034.3 28034.3 28034.3 28034.3 28034.3 28034.3 28034.3 28034.3 28034.3 28034.3 28034.3 28034.3 28034.3 28034.3 28034.3 28034.3 28034.3 28034.3 28034.3 28034.3 28034.3 28034.3 28034.3 27916.5 27916.5 27916.5 27916.5 27734.4 27734.4 27734.4 27734.4 27734.4 27734.4 27734.4 27734.4 27734.4 27734.4 27734.4 27734.4 27734.4 27734.4 27734.4 27734.4 27734.4 27734.4 27734.4 27734.4 27734.4 27734.4 27734.4 27734.4 27734.4 27734.4 27734.4 27734.4 27734.4 27590.7 27590.7 27590.7 27584.9 27584.9 27584.9 27584.9 27584.9 27584.9 27584.9 27584.9 27584.9 27584.9 27584.9 27584.9 27584.9 27584.9 27584.9 27584.9 27584.9 27584.9 27584.9 27584.9 27584.9 27584.9 27584.9 27584.9 27584.9 27584.9 27584.9 27584.9 27584.9 27584.9 27584.9 27584.9 27584.9 27584.9 27584.9 27584.9 27584.9 27584.9 27584.9 27584.9 27584.9 27584.9 27584.9 27584.9 27584.9 27584.9 27584.9 27584.9 27584.9 27584.9 27584.9 27584.9 27584.9 27584.9 27584.9 27584.9 27584.9 27584.9 27584.9 27584.9 27584.9 27584.9 27584.9 27584.9 27584.9 27584.9 27584.9 27584.9 27584.9 27584.9 27584.9 27584.9 27584.9 27584.9 27584.9 27584.9 27584.9 27584.9 27584.9 27584.9 27584.9 27584.9 27584.9 27584.9 27584.9 27584.9 27584.9 27584.9 27584.9 27584.9 27584.9 27584.9 27584.9 27584.9 27584.9 27584.9 27584.9 27584.9 27584.9 27584.9 27503.9 27503.9 27503.9 27503.9 27503.9 27503.9 27503.9 27503.9 27503.9 27503.9 27503.9 27503.9 27503.9 27503.9 27503.9 27503.9 27503.9 27503.9 27503.9 27503.9 27503.9 27274.8 27274.8 27274.8 27274.8 27274.8 27274.8 27274.8 27274.8 27274.8 27274.8 27274.8 27274.8 27274.8 27274.8 27274.8 27274.8 27274.8 27274.8 27274.8 27274.8 27274.8 27274.8 27274.8 27274.8 27274.8 27274.8 27146.9 27146.9 27146.9 27146.9 27146.9 27146.9 27146.9 27146.9 27146.9 27146.9 27146.9 27146.9 27146.9 27146.9 27146.9 27146.9 27146.9 27146.9 27146.9 27146.9 27146.9 27146.9 27146.9 27146.9 27146.9 27146.9 27146.9 27146.9 27146.9 27140.7 27140.7 27140.7 27072.5 27072.5 27072.5 27072.5 27072.5 27072.5 27072.5 27072.5 27072.5 27072.5 27072.5 27072.5 27072.5 27072.5 27072.5 27072.5 27072.5 27072.5 27072.5 27072.5 27072.5 27072.5 27072.5 27072.5 27072.5 27072.5 27072.5 27072.5 27072.5 26881.4 26881.4 26881.4 26881.4 26881.4 26881.4 26881.4 26881.4 26881.4 26881.4 26881.4 26881.4 26881.4 26881.4 26881.4 26881.4 26881.4 26881.4 26881.4 26853.7 26853.7 26853.7 26853.7 26853.7 26853.7 26853.7 26853.7 26853.7 26853.7 26821.4 26821.4 26821.4 26821.4 26821.4 26821.4 26821.4 26759.3 26759.3 26759.3 26759.3 26759.3 26759.3 26759.3 26759.3 26759.3 26759.3 26759.3 26533.6 26533.6 26533.6 26533.6 26533.6 26533.6 26533.6 26533.6 26533.6 26533.6 26533.6 26533.6 26533.6 26533.6 26533.6 26533.6 26533.6 26533.6 26533.6 26533.6 26533.6 26533.6 26533.6 26533.6 26533.6 26533.6 26533.6 26533.6 26533.6 26533.6 26533.6 26533.6 26533.6 26533.6 26533.6 26533.6 26533.6 26533.6 26533.6 26533.6 26533.6 26533.6 26533.6 26533.6 26533.6 26533.6 26533.6 26533.6 26506.9 26506.9 26506.9 26506.9 26506.9 26506.9 26506.9 26506.9 26506.9 26506.9 26506.9 26506.9 26506.9 26506.9 26506.9 26427 26427 26427 26427 26427 26427 26427 26427 26427 26427 26412.6 26412.6 26412.6 26412.6 26412.6 26412.6 26412.6 26412.6 26287.5 26287.5 26287.5 26287.5 26120.3 26120.3 26120.3 26120.3 26120.3 26120.3 26120.3 26120.3 26120.3 26120.3 26120.3 26120.3 26120.3 26120.3 26120.3 26120.3 26120.3 26120.3 26120.3 26120.3 26120.3 26120.3 26120.3 26120.3 26120.3 26120.3 26120.3 26120.3 26120.3 26120.3 26120.3 26120.3 26120.3 26120.3 26120.3 26120.3 26120.3 26120.3 26120.3 26120.3 26120.3 26120.3 26120.3 26120.3 26120.3 26120.3 26120.3 26120.3 26120.3 26120.3 26120.3 26120.3 26120.3 26120.3 26120.3 26120.3 26120.3 26120.3 26120.3 26042.2 26042.2 26042.2 26042.2 26042.2 26042.2 26042.2 26042.2 26042.2 26042.2 26042.2 26042.2 26042.2 26042.2 26042.2 26042.2 26042.2 26042.2 26042.2 26042.2 26042.2 26042.2 26042.2 26042.2 26042.2 26042.2 26042.2 26042.2 26042.2 26042.2 26042.2 26042.2 26042.2 26042.2 26042.2 26042.2 26042.2 26042.2 26042.2 26042.2 26042.2 26042.2 26042.2 26042.2 26042.2 26042.2 26042.2 26042.2 26042.2 26042.2 26042.2 26042.2 26042.2 26042.2 26042.2 26042.2 26042.2 26042.2 26042.2 26042.2 26042.2 26042.2 26042.2 26042.2 26042.2 26042.2 26042.2 26042.2 26042.2 26042.2 26042.2 26042.2 26042.2 25967.7 25967.7 25958.2 25958.2 25958.2 25958.2 25958.2 25958.2 25958.2 25870.4 25870.4 25870.4 25870.4 25870.4 25870.4 25856.3 25856.3 25856.3 25856.3 25856.3 25856.3 25856.3 25856.3 25856.3 25856.3 25856.3 25856.3 25856.3 25856.3 25856.3 25856.3 25856.3 25856.3 25856.3 25856.3 25856.3 25856.3 25856.3 25856.3 25856.3 25856.3 25856.3 25856.3 25856.3 25856.3 25856.3 25856.3 25856.3 25856.3 25856.3 25856.3 25856.3 25856.3 25856.3 25856.3 25856.3 25856.3 25856.3 25856.3 25856.3 25856.3 25856.3 25856.3 25856.3 25856.3 25856.3 25856.3 25856.3 25856.3 25856.3 25856.3 25856.3 25856.3 25856.3 25856.3 25856.3 25856.3 25856.3 25856.3 25856.3 25856.3 25856.3 25856.3 25856.3 25856.3 25856.3 25856.3 25856.3 25856.3 25856.3 25856.3 25856.3 25856.3 25856.3 25819.5 25819.5 25701.7 25701.7 25701.7 25701.7 25701.7 25701.7 25701.7 25701.7 25701.7 25701.7 25701.7 25699.2 25699.2 25699.2 25699.2 25699.2 25699.2 25699.2 25699.2 25699.2 25699.2 25699.2 25699.2 25699.2 25699.2 25699.2 25699.2 25699.2 25699.2 25699.2 25699.2 25699.2 25699.2 25699.2 25699.2 25699.2 25699.2 25699.2 25699.2 25699.2 25699.2 25699.2 25699.2 25699.2 25699.2 25699.2 25699.2 25699.2 25355.9 25355.9 25355.9 25355.9 25355.9 25355.9 25355.9 25355.9 25355.9 25355.9 25355.9 25355.9 25355.9 25355.9 25355.9 25355.9 25355.9 25355.9 25355.9 25355.9 25355.9 25355.9 25355.9 25355.9 25355.9 25355.9 25355.9 25355.9 25355.9 25355.9 25355.9 25355.9 25355.9 25355.9 25355.9 25355.9 25355.9 25355.9 25355.9 25355.9 25355.9 25355.9 25355.9 25355.9 25355.9 25355.9 25355.9 25355.9 25355.9 25355.9 25355.9 25355.9 25355.9 25355.9 25355.9 25355.9 25355.9 25355.9 25355.9 25355.9 25355.9 25355.9 25355.9 25355.9 25355.9 25355.9 25355.9 25355.9 25355.9 25355.9 25355.9 25355.9 25355.9 25355.9 25355.9 25355.9 25355.9 25355.9 25330.5 25330.5 25330.5 25330.5 25330.5 25330.5 25330.5 25330.5 25330.5 25330.5 25330.5 25330.5 25192.1 25192.1 25192.1 25192.1 25192.1 25192.1 25192.1 25192.1 25192.1 25192.1 25192.1 25192.1 25192.1 25192.1 25192.1 25192.1 25192.1 25192.1 25192.1 25192.1 25192.1 25192.1 25192.1 25192.1 25192.1 25192.1 25192.1 25192.1 25192.1 25192.1 25192.1 25192.1 25192.1 25192.1 25192.1 25192.1 25192.1 25192.1 25192.1 25192.1 25192.1 25192.1 25192.1 25192.1 25192.1 25192.1 25192.1 25192.1 25192.1 25192.1 25127.7 25127.7 25127.7 25089.5 25089.5 25089.5 25089.5 25089.5 25089.5 25089.5 25089.5 25089.5 25089.5 25089.5 25089.5 25089.5 25089.5 25089.5 25089.5 25089.5 25089.5 25089.5 25089.5 25089.5 25089.5 25089.5 25089.5 25089.5 25089.5 25089.5 25089.5 25089.5 25089.5 25089.5 25089.5 25089.5 25089.5 25089.5 25089.5 25089.5 25089.5 25089.5 25089.5 25089.5 25089.5 25089.5 25089.5 25089.5 25089.5 25089.5 25089.5 25089.5 25089.5 25089.5 25089.5 25089.5 25089.5 25020.4 25020.4 24971.3 24971.3 24971.3 24971.3 24926.5 24926.5 24926.5 24926.5 24926.5 24926.5 24926.5 24926.5 24926.5 24926.5 24926.5 24926.5 24926.5 24926.5 24817.4 24817.4 24817.4 24817.4 24817.4 24817.4 24817.4 24817.4 24817.4 24817.4 24817.4 24817.4 24817.4 24817.4 24817.4 24817.4 24817.4 24817.4 24817.4 24817.4 24817.4 24817.4 24817.4 24817.4 24817.4 24817.4 24695.7 24695.7 24695.7 24695.7 24695.7 24695.7 24695.7 24695.7 24695.7 24695.7 24695.7 24695.7 24695.7 24645.4 24645.4 24645.4 24645.4 24645.4 24460 24460 24460 24460 24460 24460 24460 24460 24460 24460 24460 24460 24460 24460 24460 24460 24460 24460 24460 24460 24460 24460 24460 24460 24460 24460 24460 24460 24460 24460 24460 24460 24460 24460 24460 24460 24460 24460 24460 24460 24460 24460 24460 24460 24460 24460 24460 24460 24460 24460 24460 24460 24460 24460 24460 24460 24460 24460 24460 24460 24460 24460 24460 24460 24460 24460 24460 24460 24460 24460 24460 24460 24460 24460 24460 24460 24460 24460 24460 24460 24460 24460 24460 24460 24460 24460 24460 24460 24460 24460 24460 24460 24460 24460 24460 24460 24460 24460 24460 24460 24460 24460 24460 24460 24460 24460 24460 24460 24460 24460 24460 24460 24460 24460 24460 24460 24460 24460 24460 24460 24460 24460 24460 24460 24460 24460 24460 24460 24460 24460 24460 24460 24460 24460 24460 24460 24460 24460 24460 24460 24460 24460 24460 24460 24460 24460 24460 24460 24460 24460 24395.1 24395.1 24395.1 24395.1 24395.1 24395.1 24221.9 24221.9 24221.9 24221.9 24221.9 24221.9 24221.9 24221.9 24221.9 24221.9 24221.9 24221.9 24221.9 24221.9 24221.9 24221.9 24221.9 24221.9 24193.3 24193.3 24193.3 24193.3 24193.3 24193.3 24193.3 24193.3 24193.3 24193.3 24193.3 23830.9 23830.9 23830.9 23830.9 23830.9 23830.9 23830.9 23830.9 23830.9 23830.9 23830.9 23830.9 23830.9 23830.9 23830.9 23830.9 23830.9 23830.9 23830.9 23830.9 23830.9 23830.9 23830.9 23830.9 23830.9 23830.9 23830.9 23830.9 23830.9 23830.9 23830.9 23830.9 23830.9 23830.9 23830.9 23830.9 23830.9 23830.9 23830.9 23830.9 23830.9 23830.9 23830.9 23830.9 23830.9 23830.9 23830.9 23830.9 23830.9 23830.9 23830.9 23830.9 23830.9 23830.9 23830.9 23830.9 23830.9 23830.9 23830.9 23830.9 23830.9 23830.9 23830.9 23830.9 23830.9 23830.9 23830.9 23781.7 23781.7 23781.7 23781.7 23781.7 23781.7 23781.7 23781.7 23781.7 23781.7 23781.7 23778.8 23778.8 23778.8 23778.8 23778.8 23778.8 23778.8 23778.8 23778.8 23778.8 23778.8 23778.8 23778.8 23778.8 23778.8 23778.8 23778.8 23778.8 23778.8 23778.8 23778.8 23778.8 23778.8 23778.8 23778.8 23778.8 23778.8 23778.8 23778.8 23778.8 23778.8 23778.8 23778.8 23778.8 23778.8 23778.8 23778.8 23778.8 23778.8 23778.8 23778.8 23778.8 23778.8 23778.8 23778.8 23778.8 23778.8 23765.9 23765.9 23765.9 23765.9 23765.9 23765.9 23765.9 23765.9 23765.9 23765.9 23635.8 23635.8 23635.8 23635.8 23635.8 23635.8 23635.8 23635.8 23635.8 23635.8 23635.8 23635.8 23635.8 23635.8 23635.8 23635.8 23635.8 23635.8 23635.8 23635.8 23635.8 23635.8 23635.8 23635.8 23635.8 23635.8 23635.8 23635.8 23635.8 23635.8 23635.8 23635.8 23635.8 23635.8 23635.8 23635.8 23635.8 23635.8 23635.8 23635.8 23630.4 23630.4 23630.4 23382.8 23382.8 23382.8 23382.8 23382.8 23382.8 23382.8 23382.8 23382.8 23382.8 23382.8 23382.8 23382.8 23382.8 23382.8 23382.8 23382.8 23382.8 23382.8 23382.8 23382.8 23382.8 23382.8 23382.8 23382.8 23382.8 23382.8 23382.8 23382.8 23382.8 23382.8 23382.8 23382.8 23382.8 23382.8 23382.8 23382.8 23382.8 23382.8 23382.8 23382.8 23382.8 23382.8 23382.8 23382.8 23382.8 23382.8 23382.8 23382.8 23382.8 23382.8 23295 23213.7 23213.7 23213.7 23213.7 23213.7 23213.7 23213.7 23213.7 23213.7 23213.7 23213.7 23213.7 23213.7 23213.7 23213.7 23213.7 23213.7 23213.7 23213.7 23213.7 23213.7 23165 23165 23165 23165 23165 23121.8 23121.8 23121.8 23121.8 23121.8
109 94 151 132 2 76 72 104 73 60 144 232 251 27 146 88 140 149 269 217 163 171 272 143 125 273 247 244 225 210 23 120 168 42 267 238 24 246 122 40 63 86 99 190 127 191 92 70 110 162 178 28 277 5 271 3 58 176 64 55 185 97 101 167 164 10 187 61 114 121 203 254 242 260 215 233 212 137 81 36 74 77 75 118 46 181 152 202 186 182 153 14 20 150 37 43 71 66 33 48 56 206 205 128 126 155 179 19 197 131 9 25 193 119 159 194 195 198 211 226 213 17 235 279 26 21 53 106 255 208 147 142 183 174 196 85 160 35 111 107 165 218 249 250 227 278 237 78 83 170 82 65 161 209 256 234 124 89 276 222 113 102 115 207 157 84 91 130 156 270 252 204 12 6 7 16 245 4 275 258 216 172 100 30 158 34 62 59 29 264 18 139 228 219 220 175 49 44 39 199 223 192 201 236 229 274 148 239 224 145 180 138 189 166 173 103 79 68 214 240 253 268 261 231 221 98 80 96 90 184 41 11 134 1 200 93 259 133 263 230 241 243 248 188 177 45 31 129 108 69 51 54 47 95 117 112 257 262 280 15 123 154 57 52 266 169 50 141 105 135 22 8 265 32 87 38 116 67 136 13
1 2 242 243 244 241 240 239 238 237 236 235 234 233 232 231 246 245 247 250 251 230 229 228 227 226 225 224 223 222 221 220 219 218 217 216 215 214 213 212 211 210 207 206 205 204 203 202 201 198 197 196 195 194 193 192 191 190 189 188 187 186 185 184 183 182 181 176 180 179 150 178 177 151 152 156 153 155 154 129 130 131 20 21 128 127 126 125 124 123 122 121 120 119 157 158 159 160 175 161 162 163 164 165 166 167 168 169 170 172 171 173 174 107 106 105 104 103 102 101 100 99 98 97 96 95 94 93 92 91 90 89 109 108 110 111 112 88 87 113 114 115 117 116 86 85 84 83 82 81 80 79 78 77 76 75 74 73 72 71 70 69 68 67 66 65 64 58 57 56 55 54 53 52 51 50 49 48 47 46 45 44 59 63 62 118 61 60 43 42 41 40 39 38 37 36 35 34 33 32 31 30 29 28 27 26 22 25 23 24 14 15 13 12 11 10 9 8 7 6 5 4 277 276 275 274 273 272 271 16 17 18 19 132 133 134 270 269 135 136 268 267 137 138 139 149 148 147 146 145 199 200 144 143 142 141 140 266 265 264 263 262 261 260 259 258 257 254 253 208 209 252 255 256 249 248 278 279 3 280
